p cnf 12 50 
5 11 8 0
-12 -6 1 0
-4 -2 9 0
-2 7 10 0
3 7 -9 0
-3 -7 2 0
4 -12 6 0
9 6 10 0
-1 -6 -11 0
4 -2 -6 0
-9 6 1 0
-9 3 -10 0
-11 -9 12 0
4 9 -10 0
12 -2 -8 0
11 -5 7 0
9 -7 -11 0
-2 10 9 0
-8 -4 -6 0
2 3 5 0
-6 4 -5 0
-6 -7 -11 0
5 8 -4 0
1 8 -10 0
1 10 12 0
4 -12 -11 0
7 -6 -1 0
-9 -12 -8 0
-7 -1 -4 0
8 -6 -7 0
-2 1 10 0
8 12 5 0
10 7 9 0
-12 6 5 0
-4 -11 -2 0
-6 -1 -8 0
11 8 -6 0
-1 -5 8 0
-11 8 -3 0
9 12 2 0
3 -8 -1 0
5 10 4 0
5 -7 3 0
9 -10 -3 0
-12 -8 10 0
-4 11 -12 0
1 2 -3 0
2 4 -7 0
10 -6 2 0
12 -5 9 0
